/* Objective function */
min: +C26 +C27 +C28 +C29 +C30;

/* Constraints */
+12 C1 +57 C2 +37 C3 +71 C4 +76 C5 -92 C26 <= 0;
+12 C6 +57 C7 +37 C8 +71 C9 +76 C10 -92 C27 <= 0;
+12 C11 +57 C12 +37 C13 +71 C14 +76 C15 -92 C28 <= 0;
+12 C16 +57 C17 +37 C18 +71 C19 +76 C20 -92 C29 <= 0;
+12 C21 +57 C22 +37 C23 +71 C24 +76 C25 -92 C30 <= 0;
+19 C1 +12 C2 +15 C3 +C4 +C5 -23 C26 <= 0;
+19 C6 +12 C7 +15 C8 +C9 +C10 -23 C27 <= 0;
+19 C11 +12 C12 +15 C13 +C14 +C15 -23 C28 <= 0;
+19 C16 +12 C17 +15 C18 +C19 +C20 -23 C29 <= 0;
+19 C21 +12 C22 +15 C23 +C24 +C25 -23 C30 <= 0;
+C1 +C6 +C11 +C16 +C21 = 1;
+C2 +C7 +C12 +C17 +C22 = 1;
+C3 +C8 +C13 +C18 +C23 = 1;
+C4 +C9 +C14 +C19 +C24 = 1;
+C5 +C10 +C15 +C20 +C25 = 1;

/* Variable bounds */
C1 <= 1;
C2 <= 1;
C3 <= 1;
C4 <= 1;
C5 <= 1;
C6 <= 1;
C7 <= 1;
C8 <= 1;
C9 <= 1;
C10 <= 1;
C11 <= 1;
C12 <= 1;
C13 <= 1;
C14 <= 1;
C15 <= 1;
C16 <= 1;
C17 <= 1;
C18 <= 1;
C19 <= 1;
C20 <= 1;
C21 <= 1;
C22 <= 1;
C23 <= 1;
C24 <= 1;
C25 <= 1;
C26 <= 1;
C27 <= 1;
C28 <= 1;
C29 <= 1;
C30 <= 1;

/* Integer definitions */
int C1,C2,C3,C4,C5,C6,C7,C8,C9,C10,C11,C12,C13,C14,C15,C16,C17,C18,C19,C20,C21,C22,C23,C24,C25,C26,C27,C28,C29,C30;
